c turning on binary mode checking
c parsing input formula with 259840 variables and 1039924 clauses
c finished parsing, read 3542272 bytes from proof file
c detected empty clause; start verification via backward checking
c 2486 of 1039924 clauses in core                            
c 745 of 132397 lemmas in core using 13606 resolution steps
c 0 RAT lemmas in core; 49 redundant literals in core lemmas
s VERIFIED
c verification time: 1.437 seconds
